p cnf 10 40
8 -5 -9 0
-6 -10 -9 0
-10 -5 -4 0
2 -8 -4 0
1 -6 -4 0
7 2 -10 0
-9 4 -10 0
7 -3 -1 0
-9 -6 -10 0
2 -7 -6 0
-4 -6 -3 0
-6 2 -8 0
-10 7 -6 0
-1 -10 -9 0
-4 7 -9 0
-6 7 -8 0
-5 -4 -10 0
-9 -8 -2 0
-4 -5 2 0
-5 -1 7 0
-4 -3 -10 0
-6 -3 -5 0
-2 4 -6 0
-10 -6 1 0
-9 6 -10 0
2 -9 -6 0
7 -10 6 0
-4 -1 -5 0
-1 7 -3 0
2 -6 -5 0
-1 2 -8 0
-9 -10 -2 0
-9 -5 -10 0
9 -8 -7 0
-5 -3 -1 0
-9 2 4 0
-6 7 4 0
-4 -6 7 0
1 -9 -8 0
2 -1 -4 0
%
0